(set-info :category "industrial")
(set-info :status sat)
(declare-fun x00 () (_ BitVec 8))
(declare-fun x01 () (_ BitVec 8))
(declare-fun x03 () (_ BitVec 8))
(declare-fun x04 () (_ BitVec 8))
(declare-fun x05 () (_ BitVec 8))
(declare-fun x06 () (_ BitVec 8))
(declare-fun x08 () (_ BitVec 8))
(declare-fun x10 () (_ BitVec 8))
(declare-fun x14 () (_ BitVec 8))
(declare-fun x15 () (_ BitVec 8))
(declare-fun x18 () (_ BitVec 8))
(declare-fun x20 () (_ BitVec 8))
(declare-fun x22 () (_ BitVec 8))
(declare-fun x23 () (_ BitVec 8))
(declare-fun x24 () (_ BitVec 8))
(declare-fun x25 () (_ BitVec 8))
(declare-fun x28 () (_ BitVec 8))
(declare-fun x33 () (_ BitVec 8))
(declare-fun x35 () (_ BitVec 8))
(declare-fun x37 () (_ BitVec 8))
(declare-fun x38 () (_ BitVec 8))
(declare-fun x40 () (_ BitVec 8))
(declare-fun x41 () (_ BitVec 8))
(declare-fun x42 () (_ BitVec 8))
(declare-fun x45 () (_ BitVec 8))
(declare-fun x46 () (_ BitVec 8))
(declare-fun x48 () (_ BitVec 8))
(declare-fun x51 () (_ BitVec 8))
(declare-fun x53 () (_ BitVec 8))
(declare-fun x54 () (_ BitVec 8))
(declare-fun x56 () (_ BitVec 8))
(declare-fun x57 () (_ BitVec 8))
(declare-fun x60 () (_ BitVec 8))
(declare-fun x62 () (_ BitVec 8))
(declare-fun x64 () (_ BitVec 8))
(declare-fun x66 () (_ BitVec 8))
(declare-fun x67 () (_ BitVec 8))
(declare-fun x70 () (_ BitVec 8))
(declare-fun x72 () (_ BitVec 8))
(declare-fun x73 () (_ BitVec 8))
(declare-fun x76 () (_ BitVec 8))
(declare-fun x77 () (_ BitVec 8))
(declare-fun x81 () (_ BitVec 8))
(declare-fun x85 () (_ BitVec 8))
(declare-fun x87 () (_ BitVec 8))
(declare-fun x88 () (_ BitVec 8))
(assert (bvult x00 (_ bv9 8)))
(assert (bvult x01 (_ bv9 8)))
(assert (bvult x03 (_ bv9 8)))
(assert (bvult x04 (_ bv9 8)))
(assert (bvult x05 (_ bv9 8)))
(assert (bvult x06 (_ bv9 8)))
(assert (bvult x08 (_ bv9 8)))
(assert (bvult x10 (_ bv9 8)))
(assert (bvult x14 (_ bv9 8)))
(assert (bvult x15 (_ bv9 8)))
(assert (bvult x18 (_ bv9 8)))
(assert (bvult x20 (_ bv9 8)))
(assert (bvult x22 (_ bv9 8)))
(assert (bvult x23 (_ bv9 8)))
(assert (bvult x24 (_ bv9 8)))
(assert (bvult x25 (_ bv9 8)))
(assert (bvult x28 (_ bv9 8)))
(assert (bvult x33 (_ bv9 8)))
(assert (bvult x35 (_ bv9 8)))
(assert (bvult x37 (_ bv9 8)))
(assert (bvult x38 (_ bv9 8)))
(assert (bvult x40 (_ bv9 8)))
(assert (bvult x41 (_ bv9 8)))
(assert (bvult x42 (_ bv9 8)))
(assert (bvult x45 (_ bv9 8)))
(assert (bvult x46 (_ bv9 8)))
(assert (bvult x48 (_ bv9 8)))
(assert (bvult x51 (_ bv9 8)))
(assert (bvult x53 (_ bv9 8)))
(assert (bvult x54 (_ bv9 8)))
(assert (bvult x56 (_ bv9 8)))
(assert (bvult x57 (_ bv9 8)))
(assert (bvult x60 (_ bv9 8)))
(assert (bvult x62 (_ bv9 8)))
(assert (bvult x64 (_ bv9 8)))
(assert (bvult x66 (_ bv9 8)))
(assert (bvult x67 (_ bv9 8)))
(assert (bvult x70 (_ bv9 8)))
(assert (bvult x72 (_ bv9 8)))
(assert (bvult x73 (_ bv9 8)))
(assert (bvult x76 (_ bv9 8)))
(assert (bvult x77 (_ bv9 8)))
(assert (bvult x81 (_ bv9 8)))
(assert (bvult x85 (_ bv9 8)))
(assert (bvult x87 (_ bv9 8)))
(assert (bvult x88 (_ bv9 8)))
(assert (not (= x00 x01)))
(assert (not (= x00 (_ bv5 8))))
(assert (not (= x00 x03)))
(assert (not (= x00 x04)))
(assert (not (= x00 x05)))
(assert (not (= x00 x06)))
(assert (not (= x00 (_ bv9 8))))
(assert (not (= x00 x08)))
(assert (not (= x01 (_ bv5 8))))
(assert (not (= x01 x03)))
(assert (not (= x01 x04)))
(assert (not (= x01 x05)))
(assert (not (= x01 x06)))
(assert (not (= x01 (_ bv9 8))))
(assert (not (= x01 x08)))
(assert (not (= (_ bv5 8) x03)))
(assert (not (= (_ bv5 8) x04)))
(assert (not (= (_ bv5 8) x05)))
(assert (not (= (_ bv5 8) x06)))
(assert (not (= (_ bv5 8) (_ bv9 8))))
(assert (not (= (_ bv5 8) x08)))
(assert (not (= x03 x04)))
(assert (not (= x03 x05)))
(assert (not (= x03 x06)))
(assert (not (= x03 (_ bv9 8))))
(assert (not (= x03 x08)))
(assert (not (= x04 x05)))
(assert (not (= x04 x06)))
(assert (not (= x04 (_ bv9 8))))
(assert (not (= x04 x08)))
(assert (not (= x05 x06)))
(assert (not (= x05 (_ bv9 8))))
(assert (not (= x05 x08)))
(assert (not (= x06 (_ bv9 8))))
(assert (not (= x06 x08)))
(assert (not (= (_ bv9 8) x08)))
(assert (not (= x10 (_ bv8 8))))
(assert (not (= x10 (_ bv6 8))))
(assert (not (= x10 (_ bv1 8))))
(assert (not (= x10 x14)))
(assert (not (= x10 x15)))
(assert (not (= x10 (_ bv4 8))))
(assert (not (= x10 (_ bv7 8))))
(assert (not (= x10 x18)))
(assert (not (= (_ bv8 8) (_ bv6 8))))
(assert (not (= (_ bv8 8) (_ bv1 8))))
(assert (not (= (_ bv8 8) x14)))
(assert (not (= (_ bv8 8) x15)))
(assert (not (= (_ bv8 8) (_ bv4 8))))
(assert (not (= (_ bv8 8) (_ bv7 8))))
(assert (not (= (_ bv8 8) x18)))
(assert (not (= (_ bv6 8) (_ bv1 8))))
(assert (not (= (_ bv6 8) x14)))
(assert (not (= (_ bv6 8) x15)))
(assert (not (= (_ bv6 8) (_ bv4 8))))
(assert (not (= (_ bv6 8) (_ bv7 8))))
(assert (not (= (_ bv6 8) x18)))
(assert (not (= (_ bv1 8) x14)))
(assert (not (= (_ bv1 8) x15)))
(assert (not (= (_ bv1 8) (_ bv4 8))))
(assert (not (= (_ bv1 8) (_ bv7 8))))
(assert (not (= (_ bv1 8) x18)))
(assert (not (= x14 x15)))
(assert (not (= x14 (_ bv4 8))))
(assert (not (= x14 (_ bv7 8))))
(assert (not (= x14 x18)))
(assert (not (= x15 (_ bv4 8))))
(assert (not (= x15 (_ bv7 8))))
(assert (not (= x15 x18)))
(assert (not (= (_ bv4 8) (_ bv7 8))))
(assert (not (= (_ bv4 8) x18)))
(assert (not (= (_ bv7 8) x18)))
(assert (not (= x20 (_ bv7 8))))
(assert (not (= x20 x22)))
(assert (not (= x20 x23)))
(assert (not (= x20 x24)))
(assert (not (= x20 x25)))
(assert (not (= x20 (_ bv2 8))))
(assert (not (= x20 (_ bv3 8))))
(assert (not (= x20 x28)))
(assert (not (= (_ bv7 8) x22)))
(assert (not (= (_ bv7 8) x23)))
(assert (not (= (_ bv7 8) x24)))
(assert (not (= (_ bv7 8) x25)))
(assert (not (= (_ bv7 8) (_ bv2 8))))
(assert (not (= (_ bv7 8) (_ bv3 8))))
(assert (not (= (_ bv7 8) x28)))
(assert (not (= x22 x23)))
(assert (not (= x22 x24)))
(assert (not (= x22 x25)))
(assert (not (= x22 (_ bv2 8))))
(assert (not (= x22 (_ bv3 8))))
(assert (not (= x22 x28)))
(assert (not (= x23 x24)))
(assert (not (= x23 x25)))
(assert (not (= x23 (_ bv2 8))))
(assert (not (= x23 (_ bv3 8))))
(assert (not (= x23 x28)))
(assert (not (= x24 x25)))
(assert (not (= x24 (_ bv2 8))))
(assert (not (= x24 (_ bv3 8))))
(assert (not (= x24 x28)))
(assert (not (= x25 (_ bv2 8))))
(assert (not (= x25 (_ bv3 8))))
(assert (not (= x25 x28)))
(assert (not (= (_ bv2 8) (_ bv3 8))))
(assert (not (= (_ bv2 8) x28)))
(assert (not (= (_ bv3 8) x28)))
(assert (not (= (_ bv9 8) (_ bv6 8))))
(assert (not (= (_ bv9 8) (_ bv8 8))))
(assert (not (= (_ bv9 8) x33)))
(assert (not (= (_ bv9 8) (_ bv3 8))))
(assert (not (= (_ bv9 8) x35)))
(assert (not (= (_ bv9 8) (_ bv5 8))))
(assert (not (= (_ bv9 8) x37)))
(assert (not (= (_ bv9 8) x38)))
(assert (not (= (_ bv6 8) (_ bv8 8))))
(assert (not (= (_ bv6 8) x33)))
(assert (not (= (_ bv6 8) (_ bv3 8))))
(assert (not (= (_ bv6 8) x35)))
(assert (not (= (_ bv6 8) (_ bv5 8))))
(assert (not (= (_ bv6 8) x37)))
(assert (not (= (_ bv6 8) x38)))
(assert (not (= (_ bv8 8) x33)))
(assert (not (= (_ bv8 8) (_ bv3 8))))
(assert (not (= (_ bv8 8) x35)))
(assert (not (= (_ bv8 8) (_ bv5 8))))
(assert (not (= (_ bv8 8) x37)))
(assert (not (= (_ bv8 8) x38)))
(assert (not (= x33 (_ bv3 8))))
(assert (not (= x33 x35)))
(assert (not (= x33 (_ bv5 8))))
(assert (not (= x33 x37)))
(assert (not (= x33 x38)))
(assert (not (= (_ bv3 8) x35)))
(assert (not (= (_ bv3 8) (_ bv5 8))))
(assert (not (= (_ bv3 8) x37)))
(assert (not (= (_ bv3 8) x38)))
(assert (not (= x35 (_ bv5 8))))
(assert (not (= x35 x37)))
(assert (not (= x35 x38)))
(assert (not (= (_ bv5 8) x37)))
(assert (not (= (_ bv5 8) x38)))
(assert (not (= x37 x38)))
(assert (not (= x40 x41)))
(assert (not (= x40 x42)))
(assert (not (= x40 (_ bv4 8))))
(assert (not (= x40 (_ bv6 8))))
(assert (not (= x40 x45)))
(assert (not (= x40 x46)))
(assert (not (= x40 (_ bv1 8))))
(assert (not (= x40 x48)))
(assert (not (= x41 x42)))
(assert (not (= x41 (_ bv4 8))))
(assert (not (= x41 (_ bv6 8))))
(assert (not (= x41 x45)))
(assert (not (= x41 x46)))
(assert (not (= x41 (_ bv1 8))))
(assert (not (= x41 x48)))
(assert (not (= x42 (_ bv4 8))))
(assert (not (= x42 (_ bv6 8))))
(assert (not (= x42 x45)))
(assert (not (= x42 x46)))
(assert (not (= x42 (_ bv1 8))))
(assert (not (= x42 x48)))
(assert (not (= (_ bv4 8) (_ bv6 8))))
(assert (not (= (_ bv4 8) x45)))
(assert (not (= (_ bv4 8) x46)))
(assert (not (= (_ bv4 8) (_ bv1 8))))
(assert (not (= (_ bv4 8) x48)))
(assert (not (= (_ bv6 8) x45)))
(assert (not (= (_ bv6 8) x46)))
(assert (not (= (_ bv6 8) (_ bv1 8))))
(assert (not (= (_ bv6 8) x48)))
(assert (not (= x45 x46)))
(assert (not (= x45 (_ bv1 8))))
(assert (not (= x45 x48)))
(assert (not (= x46 (_ bv1 8))))
(assert (not (= x46 x48)))
(assert (not (= (_ bv1 8) x48)))
(assert (not (= (_ bv1 8) x51)))
(assert (not (= (_ bv1 8) (_ bv7 8))))
(assert (not (= (_ bv1 8) x53)))
(assert (not (= (_ bv1 8) x54)))
(assert (not (= (_ bv1 8) (_ bv2 8))))
(assert (not (= (_ bv1 8) x56)))
(assert (not (= (_ bv1 8) x57)))
(assert (not (= (_ bv1 8) (_ bv8 8))))
(assert (not (= x51 (_ bv7 8))))
(assert (not (= x51 x53)))
(assert (not (= x51 x54)))
(assert (not (= x51 (_ bv2 8))))
(assert (not (= x51 x56)))
(assert (not (= x51 x57)))
(assert (not (= x51 (_ bv8 8))))
(assert (not (= (_ bv7 8) x53)))
(assert (not (= (_ bv7 8) x54)))
(assert (not (= (_ bv7 8) (_ bv2 8))))
(assert (not (= (_ bv7 8) x56)))
(assert (not (= (_ bv7 8) x57)))
(assert (not (= (_ bv7 8) (_ bv8 8))))
(assert (not (= x53 x54)))
(assert (not (= x53 (_ bv2 8))))
(assert (not (= x53 x56)))
(assert (not (= x53 x57)))
(assert (not (= x53 (_ bv8 8))))
(assert (not (= x54 (_ bv2 8))))
(assert (not (= x54 x56)))
(assert (not (= x54 x57)))
(assert (not (= x54 (_ bv8 8))))
(assert (not (= (_ bv2 8) x56)))
(assert (not (= (_ bv2 8) x57)))
(assert (not (= (_ bv2 8) (_ bv8 8))))
(assert (not (= x56 x57)))
(assert (not (= x56 (_ bv8 8))))
(assert (not (= x57 (_ bv8 8))))
(assert (not (= x60 (_ bv9 8))))
(assert (not (= x60 x62)))
(assert (not (= x60 (_ bv5 8))))
(assert (not (= x60 x64)))
(assert (not (= x60 (_ bv7 8))))
(assert (not (= x60 x66)))
(assert (not (= x60 x67)))
(assert (not (= x60 (_ bv3 8))))
(assert (not (= (_ bv9 8) x62)))
(assert (not (= (_ bv9 8) (_ bv5 8))))
(assert (not (= (_ bv9 8) x64)))
(assert (not (= (_ bv9 8) (_ bv7 8))))
(assert (not (= (_ bv9 8) x66)))
(assert (not (= (_ bv9 8) x67)))
(assert (not (= (_ bv9 8) (_ bv3 8))))
(assert (not (= x62 (_ bv5 8))))
(assert (not (= x62 x64)))
(assert (not (= x62 (_ bv7 8))))
(assert (not (= x62 x66)))
(assert (not (= x62 x67)))
(assert (not (= x62 (_ bv3 8))))
(assert (not (= (_ bv5 8) x64)))
(assert (not (= (_ bv5 8) (_ bv7 8))))
(assert (not (= (_ bv5 8) x66)))
(assert (not (= (_ bv5 8) x67)))
(assert (not (= (_ bv5 8) (_ bv3 8))))
(assert (not (= x64 (_ bv7 8))))
(assert (not (= x64 x66)))
(assert (not (= x64 x67)))
(assert (not (= x64 (_ bv3 8))))
(assert (not (= (_ bv7 8) x66)))
(assert (not (= (_ bv7 8) x67)))
(assert (not (= (_ bv7 8) (_ bv3 8))))
(assert (not (= x66 x67)))
(assert (not (= x66 (_ bv3 8))))
(assert (not (= x67 (_ bv3 8))))
(assert (not (= x70 (_ bv3 8))))
(assert (not (= x70 x72)))
(assert (not (= x70 x73)))
(assert (not (= x70 (_ bv4 8))))
(assert (not (= x70 (_ bv6 8))))
(assert (not (= x70 x76)))
(assert (not (= x70 x77)))
(assert (not (= x70 (_ bv2 8))))
(assert (not (= (_ bv3 8) x72)))
(assert (not (= (_ bv3 8) x73)))
(assert (not (= (_ bv3 8) (_ bv4 8))))
(assert (not (= (_ bv3 8) (_ bv6 8))))
(assert (not (= (_ bv3 8) x76)))
(assert (not (= (_ bv3 8) x77)))
(assert (not (= (_ bv3 8) (_ bv2 8))))
(assert (not (= x72 x73)))
(assert (not (= x72 (_ bv4 8))))
(assert (not (= x72 (_ bv6 8))))
(assert (not (= x72 x76)))
(assert (not (= x72 x77)))
(assert (not (= x72 (_ bv2 8))))
(assert (not (= x73 (_ bv4 8))))
(assert (not (= x73 (_ bv6 8))))
(assert (not (= x73 x76)))
(assert (not (= x73 x77)))
(assert (not (= x73 (_ bv2 8))))
(assert (not (= (_ bv4 8) (_ bv6 8))))
(assert (not (= (_ bv4 8) x76)))
(assert (not (= (_ bv4 8) x77)))
(assert (not (= (_ bv4 8) (_ bv2 8))))
(assert (not (= (_ bv6 8) x76)))
(assert (not (= (_ bv6 8) x77)))
(assert (not (= (_ bv6 8) (_ bv2 8))))
(assert (not (= x76 x77)))
(assert (not (= x76 (_ bv2 8))))
(assert (not (= x77 (_ bv2 8))))
(assert (not (= (_ bv8 8) x81)))
(assert (not (= (_ bv8 8) (_ bv2 8))))
(assert (not (= (_ bv8 8) (_ bv3 8))))
(assert (not (= (_ bv8 8) (_ bv1 8))))
(assert (not (= (_ bv8 8) x85)))
(assert (not (= (_ bv8 8) (_ bv6 8))))
(assert (not (= (_ bv8 8) x87)))
(assert (not (= (_ bv8 8) x88)))
(assert (not (= x81 (_ bv2 8))))
(assert (not (= x81 (_ bv3 8))))
(assert (not (= x81 (_ bv1 8))))
(assert (not (= x81 x85)))
(assert (not (= x81 (_ bv6 8))))
(assert (not (= x81 x87)))
(assert (not (= x81 x88)))
(assert (not (= (_ bv2 8) (_ bv3 8))))
(assert (not (= (_ bv2 8) (_ bv1 8))))
(assert (not (= (_ bv2 8) x85)))
(assert (not (= (_ bv2 8) (_ bv6 8))))
(assert (not (= (_ bv2 8) x87)))
(assert (not (= (_ bv2 8) x88)))
(assert (not (= (_ bv3 8) (_ bv1 8))))
(assert (not (= (_ bv3 8) x85)))
(assert (not (= (_ bv3 8) (_ bv6 8))))
(assert (not (= (_ bv3 8) x87)))
(assert (not (= (_ bv3 8) x88)))
(assert (not (= (_ bv1 8) x85)))
(assert (not (= (_ bv1 8) (_ bv6 8))))
(assert (not (= (_ bv1 8) x87)))
(assert (not (= (_ bv1 8) x88)))
(assert (not (= x85 (_ bv6 8))))
(assert (not (= x85 x87)))
(assert (not (= x85 x88)))
(assert (not (= (_ bv6 8) x87)))
(assert (not (= (_ bv6 8) x88)))
(assert (not (= x87 x88)))
(assert (not (= x00 x10)))
(assert (not (= x00 x20)))
(assert (not (= x00 (_ bv9 8))))
(assert (not (= x00 x40)))
(assert (not (= x00 (_ bv1 8))))
(assert (not (= x00 x60)))
(assert (not (= x00 x70)))
(assert (not (= x00 (_ bv8 8))))
(assert (not (= x10 x20)))
(assert (not (= x10 (_ bv9 8))))
(assert (not (= x10 x40)))
(assert (not (= x10 (_ bv1 8))))
(assert (not (= x10 x60)))
(assert (not (= x10 x70)))
(assert (not (= x10 (_ bv8 8))))
(assert (not (= x20 (_ bv9 8))))
(assert (not (= x20 x40)))
(assert (not (= x20 (_ bv1 8))))
(assert (not (= x20 x60)))
(assert (not (= x20 x70)))
(assert (not (= x20 (_ bv8 8))))
(assert (not (= (_ bv9 8) x40)))
(assert (not (= (_ bv9 8) (_ bv1 8))))
(assert (not (= (_ bv9 8) x60)))
(assert (not (= (_ bv9 8) x70)))
(assert (not (= (_ bv9 8) (_ bv8 8))))
(assert (not (= x40 (_ bv1 8))))
(assert (not (= x40 x60)))
(assert (not (= x40 x70)))
(assert (not (= x40 (_ bv8 8))))
(assert (not (= (_ bv1 8) x60)))
(assert (not (= (_ bv1 8) x70)))
(assert (not (= (_ bv1 8) (_ bv8 8))))
(assert (not (= x60 x70)))
(assert (not (= x60 (_ bv8 8))))
(assert (not (= x70 (_ bv8 8))))
(assert (not (= x01 (_ bv8 8))))
(assert (not (= x01 (_ bv7 8))))
(assert (not (= x01 (_ bv6 8))))
(assert (not (= x01 x41)))
(assert (not (= x01 x51)))
(assert (not (= x01 (_ bv9 8))))
(assert (not (= x01 (_ bv3 8))))
(assert (not (= x01 x81)))
(assert (not (= (_ bv8 8) (_ bv7 8))))
(assert (not (= (_ bv8 8) (_ bv6 8))))
(assert (not (= (_ bv8 8) x41)))
(assert (not (= (_ bv8 8) x51)))
(assert (not (= (_ bv8 8) (_ bv9 8))))
(assert (not (= (_ bv8 8) (_ bv3 8))))
(assert (not (= (_ bv8 8) x81)))
(assert (not (= (_ bv7 8) (_ bv6 8))))
(assert (not (= (_ bv7 8) x41)))
(assert (not (= (_ bv7 8) x51)))
(assert (not (= (_ bv7 8) (_ bv9 8))))
(assert (not (= (_ bv7 8) (_ bv3 8))))
(assert (not (= (_ bv7 8) x81)))
(assert (not (= (_ bv6 8) x41)))
(assert (not (= (_ bv6 8) x51)))
(assert (not (= (_ bv6 8) (_ bv9 8))))
(assert (not (= (_ bv6 8) (_ bv3 8))))
(assert (not (= (_ bv6 8) x81)))
(assert (not (= x41 x51)))
(assert (not (= x41 (_ bv9 8))))
(assert (not (= x41 (_ bv3 8))))
(assert (not (= x41 x81)))
(assert (not (= x51 (_ bv9 8))))
(assert (not (= x51 (_ bv3 8))))
(assert (not (= x51 x81)))
(assert (not (= (_ bv9 8) (_ bv3 8))))
(assert (not (= (_ bv9 8) x81)))
(assert (not (= (_ bv3 8) x81)))
(assert (not (= (_ bv5 8) (_ bv6 8))))
(assert (not (= (_ bv5 8) x22)))
(assert (not (= (_ bv5 8) (_ bv8 8))))
(assert (not (= (_ bv5 8) x42)))
(assert (not (= (_ bv5 8) (_ bv7 8))))
(assert (not (= (_ bv5 8) x62)))
(assert (not (= (_ bv5 8) x72)))
(assert (not (= (_ bv5 8) (_ bv2 8))))
(assert (not (= (_ bv6 8) x22)))
(assert (not (= (_ bv6 8) (_ bv8 8))))
(assert (not (= (_ bv6 8) x42)))
(assert (not (= (_ bv6 8) (_ bv7 8))))
(assert (not (= (_ bv6 8) x62)))
(assert (not (= (_ bv6 8) x72)))
(assert (not (= (_ bv6 8) (_ bv2 8))))
(assert (not (= x22 (_ bv8 8))))
(assert (not (= x22 x42)))
(assert (not (= x22 (_ bv7 8))))
(assert (not (= x22 x62)))
(assert (not (= x22 x72)))
(assert (not (= x22 (_ bv2 8))))
(assert (not (= (_ bv8 8) x42)))
(assert (not (= (_ bv8 8) (_ bv7 8))))
(assert (not (= (_ bv8 8) x62)))
(assert (not (= (_ bv8 8) x72)))
(assert (not (= (_ bv8 8) (_ bv2 8))))
(assert (not (= x42 (_ bv7 8))))
(assert (not (= x42 x62)))
(assert (not (= x42 x72)))
(assert (not (= x42 (_ bv2 8))))
(assert (not (= (_ bv7 8) x62)))
(assert (not (= (_ bv7 8) x72)))
(assert (not (= (_ bv7 8) (_ bv2 8))))
(assert (not (= x62 x72)))
(assert (not (= x62 (_ bv2 8))))
(assert (not (= x72 (_ bv2 8))))
(assert (not (= x03 (_ bv1 8))))
(assert (not (= x03 x23)))
(assert (not (= x03 x33)))
(assert (not (= x03 (_ bv4 8))))
(assert (not (= x03 x53)))
(assert (not (= x03 (_ bv5 8))))
(assert (not (= x03 x73)))
(assert (not (= x03 (_ bv3 8))))
(assert (not (= (_ bv1 8) x23)))
(assert (not (= (_ bv1 8) x33)))
(assert (not (= (_ bv1 8) (_ bv4 8))))
(assert (not (= (_ bv1 8) x53)))
(assert (not (= (_ bv1 8) (_ bv5 8))))
(assert (not (= (_ bv1 8) x73)))
(assert (not (= (_ bv1 8) (_ bv3 8))))
(assert (not (= x23 x33)))
(assert (not (= x23 (_ bv4 8))))
(assert (not (= x23 x53)))
(assert (not (= x23 (_ bv5 8))))
(assert (not (= x23 x73)))
(assert (not (= x23 (_ bv3 8))))
(assert (not (= x33 (_ bv4 8))))
(assert (not (= x33 x53)))
(assert (not (= x33 (_ bv5 8))))
(assert (not (= x33 x73)))
(assert (not (= x33 (_ bv3 8))))
(assert (not (= (_ bv4 8) x53)))
(assert (not (= (_ bv4 8) (_ bv5 8))))
(assert (not (= (_ bv4 8) x73)))
(assert (not (= (_ bv4 8) (_ bv3 8))))
(assert (not (= x53 (_ bv5 8))))
(assert (not (= x53 x73)))
(assert (not (= x53 (_ bv3 8))))
(assert (not (= (_ bv5 8) x73)))
(assert (not (= (_ bv5 8) (_ bv3 8))))
(assert (not (= x73 (_ bv3 8))))
(assert (not (= x04 x14)))
(assert (not (= x04 x24)))
(assert (not (= x04 (_ bv3 8))))
(assert (not (= x04 (_ bv6 8))))
(assert (not (= x04 x54)))
(assert (not (= x04 x64)))
(assert (not (= x04 (_ bv4 8))))
(assert (not (= x04 (_ bv1 8))))
(assert (not (= x14 x24)))
(assert (not (= x14 (_ bv3 8))))
(assert (not (= x14 (_ bv6 8))))
(assert (not (= x14 x54)))
(assert (not (= x14 x64)))
(assert (not (= x14 (_ bv4 8))))
(assert (not (= x14 (_ bv1 8))))
(assert (not (= x24 (_ bv3 8))))
(assert (not (= x24 (_ bv6 8))))
(assert (not (= x24 x54)))
(assert (not (= x24 x64)))
(assert (not (= x24 (_ bv4 8))))
(assert (not (= x24 (_ bv1 8))))
(assert (not (= (_ bv3 8) (_ bv6 8))))
(assert (not (= (_ bv3 8) x54)))
(assert (not (= (_ bv3 8) x64)))
(assert (not (= (_ bv3 8) (_ bv4 8))))
(assert (not (= (_ bv3 8) (_ bv1 8))))
(assert (not (= (_ bv6 8) x54)))
(assert (not (= (_ bv6 8) x64)))
(assert (not (= (_ bv6 8) (_ bv4 8))))
(assert (not (= (_ bv6 8) (_ bv1 8))))
(assert (not (= x54 x64)))
(assert (not (= x54 (_ bv4 8))))
(assert (not (= x54 (_ bv1 8))))
(assert (not (= x64 (_ bv4 8))))
(assert (not (= x64 (_ bv1 8))))
(assert (not (= (_ bv4 8) (_ bv1 8))))
(assert (not (= x05 x15)))
(assert (not (= x05 x25)))
(assert (not (= x05 x35)))
(assert (not (= x05 x45)))
(assert (not (= x05 (_ bv2 8))))
(assert (not (= x05 (_ bv7 8))))
(assert (not (= x05 (_ bv6 8))))
(assert (not (= x05 x85)))
(assert (not (= x15 x25)))
(assert (not (= x15 x35)))
(assert (not (= x15 x45)))
(assert (not (= x15 (_ bv2 8))))
(assert (not (= x15 (_ bv7 8))))
(assert (not (= x15 (_ bv6 8))))
(assert (not (= x15 x85)))
(assert (not (= x25 x35)))
(assert (not (= x25 x45)))
(assert (not (= x25 (_ bv2 8))))
(assert (not (= x25 (_ bv7 8))))
(assert (not (= x25 (_ bv6 8))))
(assert (not (= x25 x85)))
(assert (not (= x35 x45)))
(assert (not (= x35 (_ bv2 8))))
(assert (not (= x35 (_ bv7 8))))
(assert (not (= x35 (_ bv6 8))))
(assert (not (= x35 x85)))
(assert (not (= x45 (_ bv2 8))))
(assert (not (= x45 (_ bv7 8))))
(assert (not (= x45 (_ bv6 8))))
(assert (not (= x45 x85)))
(assert (not (= (_ bv2 8) (_ bv7 8))))
(assert (not (= (_ bv2 8) (_ bv6 8))))
(assert (not (= (_ bv2 8) x85)))
(assert (not (= (_ bv7 8) (_ bv6 8))))
(assert (not (= (_ bv7 8) x85)))
(assert (not (= (_ bv6 8) x85)))
(assert (not (= x06 (_ bv4 8))))
(assert (not (= x06 (_ bv2 8))))
(assert (not (= x06 (_ bv5 8))))
(assert (not (= x06 x46)))
(assert (not (= x06 x56)))
(assert (not (= x06 x66)))
(assert (not (= x06 x76)))
(assert (not (= x06 (_ bv6 8))))
(assert (not (= (_ bv4 8) (_ bv2 8))))
(assert (not (= (_ bv4 8) (_ bv5 8))))
(assert (not (= (_ bv4 8) x46)))
(assert (not (= (_ bv4 8) x56)))
(assert (not (= (_ bv4 8) x66)))
(assert (not (= (_ bv4 8) x76)))
(assert (not (= (_ bv4 8) (_ bv6 8))))
(assert (not (= (_ bv2 8) (_ bv5 8))))
(assert (not (= (_ bv2 8) x46)))
(assert (not (= (_ bv2 8) x56)))
(assert (not (= (_ bv2 8) x66)))
(assert (not (= (_ bv2 8) x76)))
(assert (not (= (_ bv2 8) (_ bv6 8))))
(assert (not (= (_ bv5 8) x46)))
(assert (not (= (_ bv5 8) x56)))
(assert (not (= (_ bv5 8) x66)))
(assert (not (= (_ bv5 8) x76)))
(assert (not (= (_ bv5 8) (_ bv6 8))))
(assert (not (= x46 x56)))
(assert (not (= x46 x66)))
(assert (not (= x46 x76)))
(assert (not (= x46 (_ bv6 8))))
(assert (not (= x56 x66)))
(assert (not (= x56 x76)))
(assert (not (= x56 (_ bv6 8))))
(assert (not (= x66 x76)))
(assert (not (= x66 (_ bv6 8))))
(assert (not (= x76 (_ bv6 8))))
(assert (not (= (_ bv9 8) (_ bv7 8))))
(assert (not (= (_ bv9 8) (_ bv3 8))))
(assert (not (= (_ bv9 8) x37)))
(assert (not (= (_ bv9 8) (_ bv1 8))))
(assert (not (= (_ bv9 8) x57)))
(assert (not (= (_ bv9 8) x67)))
(assert (not (= (_ bv9 8) x77)))
(assert (not (= (_ bv9 8) x87)))
(assert (not (= (_ bv7 8) (_ bv3 8))))
(assert (not (= (_ bv7 8) x37)))
(assert (not (= (_ bv7 8) (_ bv1 8))))
(assert (not (= (_ bv7 8) x57)))
(assert (not (= (_ bv7 8) x67)))
(assert (not (= (_ bv7 8) x77)))
(assert (not (= (_ bv7 8) x87)))
(assert (not (= (_ bv3 8) x37)))
(assert (not (= (_ bv3 8) (_ bv1 8))))
(assert (not (= (_ bv3 8) x57)))
(assert (not (= (_ bv3 8) x67)))
(assert (not (= (_ bv3 8) x77)))
(assert (not (= (_ bv3 8) x87)))
(assert (not (= x37 (_ bv1 8))))
(assert (not (= x37 x57)))
(assert (not (= x37 x67)))
(assert (not (= x37 x77)))
(assert (not (= x37 x87)))
(assert (not (= (_ bv1 8) x57)))
(assert (not (= (_ bv1 8) x67)))
(assert (not (= (_ bv1 8) x77)))
(assert (not (= (_ bv1 8) x87)))
(assert (not (= x57 x67)))
(assert (not (= x57 x77)))
(assert (not (= x57 x87)))
(assert (not (= x67 x77)))
(assert (not (= x67 x87)))
(assert (not (= x77 x87)))
(assert (not (= x08 x18)))
(assert (not (= x08 x28)))
(assert (not (= x08 x38)))
(assert (not (= x08 x48)))
(assert (not (= x08 (_ bv8 8))))
(assert (not (= x08 (_ bv3 8))))
(assert (not (= x08 (_ bv2 8))))
(assert (not (= x08 x88)))
(assert (not (= x18 x28)))
(assert (not (= x18 x38)))
(assert (not (= x18 x48)))
(assert (not (= x18 (_ bv8 8))))
(assert (not (= x18 (_ bv3 8))))
(assert (not (= x18 (_ bv2 8))))
(assert (not (= x18 x88)))
(assert (not (= x28 x38)))
(assert (not (= x28 x48)))
(assert (not (= x28 (_ bv8 8))))
(assert (not (= x28 (_ bv3 8))))
(assert (not (= x28 (_ bv2 8))))
(assert (not (= x28 x88)))
(assert (not (= x38 x48)))
(assert (not (= x38 (_ bv8 8))))
(assert (not (= x38 (_ bv3 8))))
(assert (not (= x38 (_ bv2 8))))
(assert (not (= x38 x88)))
(assert (not (= x48 (_ bv8 8))))
(assert (not (= x48 (_ bv3 8))))
(assert (not (= x48 (_ bv2 8))))
(assert (not (= x48 x88)))
(assert (not (= (_ bv8 8) (_ bv3 8))))
(assert (not (= (_ bv8 8) (_ bv2 8))))
(assert (not (= (_ bv8 8) x88)))
(assert (not (= (_ bv3 8) (_ bv2 8))))
(assert (not (= (_ bv3 8) x88)))
(assert (not (= (_ bv2 8) x88)))
(assert (not (= x00 x01)))
(assert (not (= x00 (_ bv5 8))))
(assert (not (= x00 x10)))
(assert (not (= x00 (_ bv8 8))))
(assert (not (= x00 (_ bv6 8))))
(assert (not (= x00 x20)))
(assert (not (= x00 (_ bv7 8))))
(assert (not (= x00 x22)))
(assert (not (= x01 (_ bv5 8))))
(assert (not (= x01 x10)))
(assert (not (= x01 (_ bv8 8))))
(assert (not (= x01 (_ bv6 8))))
(assert (not (= x01 x20)))
(assert (not (= x01 (_ bv7 8))))
(assert (not (= x01 x22)))
(assert (not (= (_ bv5 8) x10)))
(assert (not (= (_ bv5 8) (_ bv8 8))))
(assert (not (= (_ bv5 8) (_ bv6 8))))
(assert (not (= (_ bv5 8) x20)))
(assert (not (= (_ bv5 8) (_ bv7 8))))
(assert (not (= (_ bv5 8) x22)))
(assert (not (= x10 (_ bv8 8))))
(assert (not (= x10 (_ bv6 8))))
(assert (not (= x10 x20)))
(assert (not (= x10 (_ bv7 8))))
(assert (not (= x10 x22)))
(assert (not (= (_ bv8 8) (_ bv6 8))))
(assert (not (= (_ bv8 8) x20)))
(assert (not (= (_ bv8 8) (_ bv7 8))))
(assert (not (= (_ bv8 8) x22)))
(assert (not (= (_ bv6 8) x20)))
(assert (not (= (_ bv6 8) (_ bv7 8))))
(assert (not (= (_ bv6 8) x22)))
(assert (not (= x20 (_ bv7 8))))
(assert (not (= x20 x22)))
(assert (not (= (_ bv7 8) x22)))
(assert (not (= x03 x04)))
(assert (not (= x03 x05)))
(assert (not (= x03 (_ bv1 8))))
(assert (not (= x03 x14)))
(assert (not (= x03 x15)))
(assert (not (= x03 x23)))
(assert (not (= x03 x24)))
(assert (not (= x03 x25)))
(assert (not (= x04 x05)))
(assert (not (= x04 (_ bv1 8))))
(assert (not (= x04 x14)))
(assert (not (= x04 x15)))
(assert (not (= x04 x23)))
(assert (not (= x04 x24)))
(assert (not (= x04 x25)))
(assert (not (= x05 (_ bv1 8))))
(assert (not (= x05 x14)))
(assert (not (= x05 x15)))
(assert (not (= x05 x23)))
(assert (not (= x05 x24)))
(assert (not (= x05 x25)))
(assert (not (= (_ bv1 8) x14)))
(assert (not (= (_ bv1 8) x15)))
(assert (not (= (_ bv1 8) x23)))
(assert (not (= (_ bv1 8) x24)))
(assert (not (= (_ bv1 8) x25)))
(assert (not (= x14 x15)))
(assert (not (= x14 x23)))
(assert (not (= x14 x24)))
(assert (not (= x14 x25)))
(assert (not (= x15 x23)))
(assert (not (= x15 x24)))
(assert (not (= x15 x25)))
(assert (not (= x23 x24)))
(assert (not (= x23 x25)))
(assert (not (= x24 x25)))
(assert (not (= x06 (_ bv9 8))))
(assert (not (= x06 x08)))
(assert (not (= x06 (_ bv4 8))))
(assert (not (= x06 (_ bv7 8))))
(assert (not (= x06 x18)))
(assert (not (= x06 (_ bv2 8))))
(assert (not (= x06 (_ bv3 8))))
(assert (not (= x06 x28)))
(assert (not (= (_ bv9 8) x08)))
(assert (not (= (_ bv9 8) (_ bv4 8))))
(assert (not (= (_ bv9 8) (_ bv7 8))))
(assert (not (= (_ bv9 8) x18)))
(assert (not (= (_ bv9 8) (_ bv2 8))))
(assert (not (= (_ bv9 8) (_ bv3 8))))
(assert (not (= (_ bv9 8) x28)))
(assert (not (= x08 (_ bv4 8))))
(assert (not (= x08 (_ bv7 8))))
(assert (not (= x08 x18)))
(assert (not (= x08 (_ bv2 8))))
(assert (not (= x08 (_ bv3 8))))
(assert (not (= x08 x28)))
(assert (not (= (_ bv4 8) (_ bv7 8))))
(assert (not (= (_ bv4 8) x18)))
(assert (not (= (_ bv4 8) (_ bv2 8))))
(assert (not (= (_ bv4 8) (_ bv3 8))))
(assert (not (= (_ bv4 8) x28)))
(assert (not (= (_ bv7 8) x18)))
(assert (not (= (_ bv7 8) (_ bv2 8))))
(assert (not (= (_ bv7 8) (_ bv3 8))))
(assert (not (= (_ bv7 8) x28)))
(assert (not (= x18 (_ bv2 8))))
(assert (not (= x18 (_ bv3 8))))
(assert (not (= x18 x28)))
(assert (not (= (_ bv2 8) (_ bv3 8))))
(assert (not (= (_ bv2 8) x28)))
(assert (not (= (_ bv3 8) x28)))
(assert (not (= (_ bv9 8) (_ bv6 8))))
(assert (not (= (_ bv9 8) (_ bv8 8))))
(assert (not (= (_ bv9 8) x40)))
(assert (not (= (_ bv9 8) x41)))
(assert (not (= (_ bv9 8) x42)))
(assert (not (= (_ bv9 8) (_ bv1 8))))
(assert (not (= (_ bv9 8) x51)))
(assert (not (= (_ bv9 8) (_ bv7 8))))
(assert (not (= (_ bv6 8) (_ bv8 8))))
(assert (not (= (_ bv6 8) x40)))
(assert (not (= (_ bv6 8) x41)))
(assert (not (= (_ bv6 8) x42)))
(assert (not (= (_ bv6 8) (_ bv1 8))))
(assert (not (= (_ bv6 8) x51)))
(assert (not (= (_ bv6 8) (_ bv7 8))))
(assert (not (= (_ bv8 8) x40)))
(assert (not (= (_ bv8 8) x41)))
(assert (not (= (_ bv8 8) x42)))
(assert (not (= (_ bv8 8) (_ bv1 8))))
(assert (not (= (_ bv8 8) x51)))
(assert (not (= (_ bv8 8) (_ bv7 8))))
(assert (not (= x40 x41)))
(assert (not (= x40 x42)))
(assert (not (= x40 (_ bv1 8))))
(assert (not (= x40 x51)))
(assert (not (= x40 (_ bv7 8))))
(assert (not (= x41 x42)))
(assert (not (= x41 (_ bv1 8))))
(assert (not (= x41 x51)))
(assert (not (= x41 (_ bv7 8))))
(assert (not (= x42 (_ bv1 8))))
(assert (not (= x42 x51)))
(assert (not (= x42 (_ bv7 8))))
(assert (not (= (_ bv1 8) x51)))
(assert (not (= (_ bv1 8) (_ bv7 8))))
(assert (not (= x51 (_ bv7 8))))
(assert (not (= x33 (_ bv3 8))))
(assert (not (= x33 x35)))
(assert (not (= x33 (_ bv4 8))))
(assert (not (= x33 (_ bv6 8))))
(assert (not (= x33 x45)))
(assert (not (= x33 x53)))
(assert (not (= x33 x54)))
(assert (not (= x33 (_ bv2 8))))
(assert (not (= (_ bv3 8) x35)))
(assert (not (= (_ bv3 8) (_ bv4 8))))
(assert (not (= (_ bv3 8) (_ bv6 8))))
(assert (not (= (_ bv3 8) x45)))
(assert (not (= (_ bv3 8) x53)))
(assert (not (= (_ bv3 8) x54)))
(assert (not (= (_ bv3 8) (_ bv2 8))))
(assert (not (= x35 (_ bv4 8))))
(assert (not (= x35 (_ bv6 8))))
(assert (not (= x35 x45)))
(assert (not (= x35 x53)))
(assert (not (= x35 x54)))
(assert (not (= x35 (_ bv2 8))))
(assert (not (= (_ bv4 8) (_ bv6 8))))
(assert (not (= (_ bv4 8) x45)))
(assert (not (= (_ bv4 8) x53)))
(assert (not (= (_ bv4 8) x54)))
(assert (not (= (_ bv4 8) (_ bv2 8))))
(assert (not (= (_ bv6 8) x45)))
(assert (not (= (_ bv6 8) x53)))
(assert (not (= (_ bv6 8) x54)))
(assert (not (= (_ bv6 8) (_ bv2 8))))
(assert (not (= x45 x53)))
(assert (not (= x45 x54)))
(assert (not (= x45 (_ bv2 8))))
(assert (not (= x53 x54)))
(assert (not (= x53 (_ bv2 8))))
(assert (not (= x54 (_ bv2 8))))
(assert (not (= (_ bv5 8) x37)))
(assert (not (= (_ bv5 8) x38)))
(assert (not (= (_ bv5 8) x46)))
(assert (not (= (_ bv5 8) (_ bv1 8))))
(assert (not (= (_ bv5 8) x48)))
(assert (not (= (_ bv5 8) x56)))
(assert (not (= (_ bv5 8) x57)))
(assert (not (= (_ bv5 8) (_ bv8 8))))
(assert (not (= x37 x38)))
(assert (not (= x37 x46)))
(assert (not (= x37 (_ bv1 8))))
(assert (not (= x37 x48)))
(assert (not (= x37 x56)))
(assert (not (= x37 x57)))
(assert (not (= x37 (_ bv8 8))))
(assert (not (= x38 x46)))
(assert (not (= x38 (_ bv1 8))))
(assert (not (= x38 x48)))
(assert (not (= x38 x56)))
(assert (not (= x38 x57)))
(assert (not (= x38 (_ bv8 8))))
(assert (not (= x46 (_ bv1 8))))
(assert (not (= x46 x48)))
(assert (not (= x46 x56)))
(assert (not (= x46 x57)))
(assert (not (= x46 (_ bv8 8))))
(assert (not (= (_ bv1 8) x48)))
(assert (not (= (_ bv1 8) x56)))
(assert (not (= (_ bv1 8) x57)))
(assert (not (= (_ bv1 8) (_ bv8 8))))
(assert (not (= x48 x56)))
(assert (not (= x48 x57)))
(assert (not (= x48 (_ bv8 8))))
(assert (not (= x56 x57)))
(assert (not (= x56 (_ bv8 8))))
(assert (not (= x57 (_ bv8 8))))
(assert (not (= x60 (_ bv9 8))))
(assert (not (= x60 x62)))
(assert (not (= x60 x70)))
(assert (not (= x60 (_ bv3 8))))
(assert (not (= x60 x72)))
(assert (not (= x60 (_ bv8 8))))
(assert (not (= x60 x81)))
(assert (not (= x60 (_ bv2 8))))
(assert (not (= (_ bv9 8) x62)))
(assert (not (= (_ bv9 8) x70)))
(assert (not (= (_ bv9 8) (_ bv3 8))))
(assert (not (= (_ bv9 8) x72)))
(assert (not (= (_ bv9 8) (_ bv8 8))))
(assert (not (= (_ bv9 8) x81)))
(assert (not (= (_ bv9 8) (_ bv2 8))))
(assert (not (= x62 x70)))
(assert (not (= x62 (_ bv3 8))))
(assert (not (= x62 x72)))
(assert (not (= x62 (_ bv8 8))))
(assert (not (= x62 x81)))
(assert (not (= x62 (_ bv2 8))))
(assert (not (= x70 (_ bv3 8))))
(assert (not (= x70 x72)))
(assert (not (= x70 (_ bv8 8))))
(assert (not (= x70 x81)))
(assert (not (= x70 (_ bv2 8))))
(assert (not (= (_ bv3 8) x72)))
(assert (not (= (_ bv3 8) (_ bv8 8))))
(assert (not (= (_ bv3 8) x81)))
(assert (not (= (_ bv3 8) (_ bv2 8))))
(assert (not (= x72 (_ bv8 8))))
(assert (not (= x72 x81)))
(assert (not (= x72 (_ bv2 8))))
(assert (not (= (_ bv8 8) x81)))
(assert (not (= (_ bv8 8) (_ bv2 8))))
(assert (not (= x81 (_ bv2 8))))
(assert (not (= (_ bv5 8) x64)))
(assert (not (= (_ bv5 8) (_ bv7 8))))
(assert (not (= (_ bv5 8) x73)))
(assert (not (= (_ bv5 8) (_ bv4 8))))
(assert (not (= (_ bv5 8) (_ bv6 8))))
(assert (not (= (_ bv5 8) (_ bv3 8))))
(assert (not (= (_ bv5 8) (_ bv1 8))))
(assert (not (= (_ bv5 8) x85)))
(assert (not (= x64 (_ bv7 8))))
(assert (not (= x64 x73)))
(assert (not (= x64 (_ bv4 8))))
(assert (not (= x64 (_ bv6 8))))
(assert (not (= x64 (_ bv3 8))))
(assert (not (= x64 (_ bv1 8))))
(assert (not (= x64 x85)))
(assert (not (= (_ bv7 8) x73)))
(assert (not (= (_ bv7 8) (_ bv4 8))))
(assert (not (= (_ bv7 8) (_ bv6 8))))
(assert (not (= (_ bv7 8) (_ bv3 8))))
(assert (not (= (_ bv7 8) (_ bv1 8))))
(assert (not (= (_ bv7 8) x85)))
(assert (not (= x73 (_ bv4 8))))
(assert (not (= x73 (_ bv6 8))))
(assert (not (= x73 (_ bv3 8))))
(assert (not (= x73 (_ bv1 8))))
(assert (not (= x73 x85)))
(assert (not (= (_ bv4 8) (_ bv6 8))))
(assert (not (= (_ bv4 8) (_ bv3 8))))
(assert (not (= (_ bv4 8) (_ bv1 8))))
(assert (not (= (_ bv4 8) x85)))
(assert (not (= (_ bv6 8) (_ bv3 8))))
(assert (not (= (_ bv6 8) (_ bv1 8))))
(assert (not (= (_ bv6 8) x85)))
(assert (not (= (_ bv3 8) (_ bv1 8))))
(assert (not (= (_ bv3 8) x85)))
(assert (not (= (_ bv1 8) x85)))
(assert (not (= x66 x67)))
(assert (not (= x66 (_ bv3 8))))
(assert (not (= x66 x76)))
(assert (not (= x66 x77)))
(assert (not (= x66 (_ bv2 8))))
(assert (not (= x66 (_ bv6 8))))
(assert (not (= x66 x87)))
(assert (not (= x66 x88)))
(assert (not (= x67 (_ bv3 8))))
(assert (not (= x67 x76)))
(assert (not (= x67 x77)))
(assert (not (= x67 (_ bv2 8))))
(assert (not (= x67 (_ bv6 8))))
(assert (not (= x67 x87)))
(assert (not (= x67 x88)))
(assert (not (= (_ bv3 8) x76)))
(assert (not (= (_ bv3 8) x77)))
(assert (not (= (_ bv3 8) (_ bv2 8))))
(assert (not (= (_ bv3 8) (_ bv6 8))))
(assert (not (= (_ bv3 8) x87)))
(assert (not (= (_ bv3 8) x88)))
(assert (not (= x76 x77)))
(assert (not (= x76 (_ bv2 8))))
(assert (not (= x76 (_ bv6 8))))
(assert (not (= x76 x87)))
(assert (not (= x76 x88)))
(assert (not (= x77 (_ bv2 8))))
(assert (not (= x77 (_ bv6 8))))
(assert (not (= x77 x87)))
(assert (not (= x77 x88)))
(assert (not (= (_ bv2 8) (_ bv6 8))))
(assert (not (= (_ bv2 8) x87)))
(assert (not (= (_ bv2 8) x88)))
(assert (not (= (_ bv6 8) x87)))
(assert (not (= (_ bv6 8) x88)))
(assert (not (= x87 x88)))
(check-sat)
(exit)
